161 5
10 10 10 10 10 

0 0 0 0 0 0 5 2 24 46 68 80 
0 0 0 0 0 0 6 3 5 6 7 10 14 
4 0 1 0 1 0 2 11 4 
7 0 5 0 4 0 4 22 15 12 8 
1 0 4 0 5 0 3 21 15 9 
6 0 3 0 3 0 2 11 8 
8 0 6 0 6 0 4 21 18 12 11 
1 0 5 0 7 0 4 20 19 16 13 
6 0 7 0 3 0 4 22 19 18 12 
5 0 6 0 5 0 4 19 18 15 12 
1 0 8 0 4 0 4 19 17 15 86 
4 0 4 0 5 0 3 20 17 16 
7 0 6 0 8 0 3 21 18 17 
1 0 5 0 3 0 3 22 17 16 
10 0 4 0 4 0 1 16 
1 0 6 0 4 0 1 23 
4 0 7 0 4 0 1 23 
8 0 3 0 4 0 1 23 
7 0 1 0 7 0 1 23 
3 0 5 0 9 0 1 23 
8 0 8 0 7 0 1 23 
3 0 6 0 7 0 1 23 
0 0 0 0 0 0 1 126 
0 0 0 0 0 0 9 25 26 27 28 29 30 31 33 36 
3 2 3 0 0 0 3 44 38 32 
9 5 1 0 0 0 3 44 38 32 
7 4 2 0 0 0 3 44 38 34 
9 5 3 0 0 0 2 44 32 
3 5 6 0 0 0 5 44 43 39 38 37 
2 6 10 0 0 0 4 44 43 39 35 
2 5 6 0 0 0 4 44 39 38 35 
7 8 5 0 0 0 3 43 39 35 
5 2 5 0 0 0 3 43 42 35 
4 2 5 0 0 0 2 43 35 
2 2 7 0 0 0 1 37 
4 5 4 0 0 0 1 37 
9 7 9 0 0 0 2 41 40 
9 7 4 0 0 0 2 42 40 
2 3 4 0 0 0 1 42 
3 8 7 0 0 0 2 45 124 
6 2 3 0 0 0 1 45 
6 10 4 0 0 0 1 45 
1 6 2 0 0 0 1 45 
8 6 10 0 0 0 1 45 
0 0 0 0 0 0 1 126 
0 0 0 0 0 0 9 47 48 49 50 51 54 56 57 60 
10 1 0 1 0 0 5 66 64 62 52 111 
5 5 0 7 0 0 4 65 64 55 53 
4 7 0 5 0 0 3 65 59 55 
2 4 0 7 0 0 2 64 53 
8 4 0 6 0 0 4 64 63 62 58 
4 5 0 6 0 0 2 65 55 
5 6 0 3 0 0 3 63 62 58 
3 5 0 4 0 0 2 59 58 
9 6 0 4 0 0 2 63 58 
4 7 0 8 0 0 2 63 59 
1 2 0 5 0 0 1 58 
9 8 0 5 0 0 1 61 
1 3 0 6 0 0 1 62 
9 6 0 5 0 0 1 61 
5 3 0 5 0 0 1 67 
4 6 0 2 0 0 1 67 
7 4 0 5 0 0 1 67 
2 6 0 6 0 0 1 67 
7 5 0 5 0 0 1 67 
10 7 0 5 0 0 1 67 
0 0 0 0 0 0 1 126 
0 0 0 0 0 0 5 69 71 72 77 78 
3 0 0 1 0 0 4 76 73 70 116 
4 0 0 7 0 0 2 75 74 
5 0 0 6 0 0 2 75 74 
9 0 0 4 0 0 2 75 74 
5 0 0 8 0 0 1 74 
1 0 0 6 0 0 1 79 
9 0 0 5 0 0 1 79 
8 0 0 3 0 0 1 79 
5 0 0 7 0 0 1 79 
10 0 0 3 0 0 1 79 
0 0 0 0 0 0 2 102 114 
0 0 0 0 0 0 8 81 82 84 85 86 87 93 100 
1 1 0 3 0 0 4 99 97 88 83 
10 3 0 3 0 0 6 98 97 96 95 92 88 
10 4 0 6 0 0 3 96 95 89 
5 3 0 4 0 0 3 97 96 90 
6 7 0 6 0 0 3 96 95 91 
9 8 0 2 0 0 2 98 90 
6 4 0 2 0 0 1 88 
7 3 0 9 0 0 1 90 
2 4 0 7 0 0 1 90 
2 3 0 7 0 0 1 94 
2 7 0 10 0 0 1 94 
10 7 0 3 0 0 2 94 116 
2 3 0 7 0 0 1 95 
1 5 0 4 0 0 1 101 
3 7 0 4 0 0 1 101 
6 6 0 3 0 0 1 101 
2 4 0 2 0 0 1 101 
8 6 0 6 0 0 1 101 
8 8 0 9 0 0 1 101 
6 7 0 3 0 0 1 101 
0 0 0 0 0 0 1 126 
0 0 0 0 0 0 5 103 105 106 107 112 
4 0 0 2 0 0 3 111 109 104 
1 0 0 4 0 0 1 110 
6 0 0 5 0 0 1 109 
6 0 0 4 0 0 1 108 
10 0 0 5 0 0 1 108 
8 0 0 7 0 0 2 113 115 
7 0 0 1 0 0 1 113 
1 0 0 4 0 0 1 113 
7 0 0 8 0 0 1 113 
8 0 0 10 0 0 1 113 
0 0 0 0 0 0 1 126 
0 0 0 0 0 0 3 115 116 119 
1 0 0 0 0 1 3 124 118 117 
4 0 0 0 0 4 3 123 120 117 
9 0 0 0 0 6 2 122 121 
6 0 0 0 0 8 2 123 122 
9 0 0 0 0 4 1 120 
6 0 0 0 0 6 1 121 
2 0 0 0 0 4 1 125 
6 0 0 0 0 5 1 125 
4 0 0 0 0 6 1 125 
10 0 0 0 0 6 1 125 
0 0 0 0 0 0 1 126 
0 0 0 0 0 0 2 127 128 
1 0 1 0 0 0 3 131 130 129 
6 0 9 0 0 0 2 132 129 
3 0 4 0 0 0 4 136 135 134 133 
9 0 4 0 0 0 4 136 135 134 133 
4 0 5 0 0 0 4 136 135 134 133 
1 0 5 0 0 0 1 133 
7 0 7 0 0 0 1 137 
10 0 5 0 0 0 1 137 
9 0 5 0 0 0 1 137 
2 0 5 0 0 0 1 137 
0 0 0 0 0 0 1 138 
0 0 0 0 0 0 4 139 140 147 148 
5 0 0 1 0 0 4 146 145 144 142 
6 0 0 7 0 0 3 145 143 141 
2 0 0 3 0 0 1 144 
9 0 0 5 0 0 1 143 
8 0 0 6 0 0 1 149 
1 0 0 6 0 0 1 149 
8 0 0 7 0 0 1 149 
4 0 0 6 0 0 1 149 
9 0 0 5 0 0 1 149 
8 0 0 4 0 0 1 149 
0 0 0 0 0 0 1 150 
0 0 0 0 0 0 5 151 152 153 154 156 
2 0 0 0 0 1 3 160 157 155 
4 0 0 0 0 8 3 160 157 155 
9 0 0 0 0 5 3 160 157 155 
10 0 0 0 0 5 1 155 
2 0 0 0 0 3 2 159 158 
6 0 0 0 0 8 2 159 158 
6 0 0 0 0 4 1 158 
8 0 0 0 0 9 1 161 
1 0 0 0 0 2 1 161 
6 0 0 0 0 5 1 161 
0 0 0 0 0 0 0 
